(set-logic QF_S)
(declare-fun H () String)
(declare-fun K () String)
(declare-fun G () String)
(declare-fun L () String)
(declare-fun M () String)
(assert (= (str.++  H H "aaaaa" H H "aaaaba" H "aab" K L "ba")  (str.++  "a" G G H H H "a" H H H "a" H "b" L L L L "b" M M "baa") ))
(check-sat)
(get-model)
